p cnf 12 50 
-10 5 -8 0
-7 -8 5 0
-6 3 4 0
2 9 -10 0
-12 -9 -7 0
8 12 6 0
-11 -2 -5 0
12 9 -7 0
-9 -3 8 0
-12 11 4 0
-1 5 3 0
2 -5 -9 0
-6 -10 7 0
-10 2 -1 0
-7 3 9 0
-12 3 -1 0
-9 -3 4 0
11 -6 8 0
-7 12 2 0
12 1 -5 0
7 3 12 0
-6 -11 4 0
12 -9 3 0
4 -5 -10 0
1 6 7 0
3 -1 6 0
-9 1 8 0
-4 6 -11 0
2 -6 -10 0
7 -1 -8 0
8 9 -6 0
-3 -5 2 0
-6 4 1 0
1 2 -7 0
3 -7 -2 0
5 9 1 0
-8 -9 3 0
-12 -2 -9 0
-10 -9 5 0
7 -11 -8 0
12 2 -3 0
-2 3 -11 0
11 -10 6 0
11 4 -7 0
-6 3 11 0
9 6 5 0
-8 3 -9 0
-11 7 -6 0
-2 -8 1 0
-8 11 3 0
